1000 1960
1 2 3 4 5 6 7 8 9 10 11 12 13 14 15 16 17 18 19 20 21 22 23 24 25 26 27 28 29 30 31 32 33 34 35 36 37 38 39 40 41 42 43 44 45 46 47 48 49 50 51 52 53 54 55 56 57 58 59 60 61 62 63
0 24 35 48 51 64 65 66 67 68 69 70 71 72 73 74 75 76 77 78 79 80 81 82 83 84 85 86 87 88 89 90 91 92 93 94 95 96 97
0 54 64 93 98 99 100 101 102 103 104 105 106 107 108 109 110 111 112 113 114 115 116 117 118 119 120 121 122 123 124 125 126 127 128 129 130 131 132 133 134 135 136 137 138 139 140 141 142 143 144 145 146 147 148 149 150 151 152 153 154 155 156
0 17 34 57 157 158 159 160 161 162 163 164 165 166 167 168 169 170 171 172 173 174 175 176 177 178 179 180 181 182 183 184 185 186 187 188 189 190 191 192 193 194 195 196 197 198 199 200 201 202 203 204 205 206 207 208
0 209 210 211 212 213 214 215 216 217 218 219 220 221 222 223 224 225 226 227 228 229 230 231 232 233 234 235 236 237 238 239 240 241
0 242 243 244 245 246 247 248 249 250 251 252 253 254 255 256 257 258 259 260 261 262 263 264 265 266 267 268 269 270 271 272 273 274 275 276 277 278 279 280 281 282 283 284 285 286 287 288 289 290 291 292 293 294 295 296 297 298 299 300 301 302 303 304 305 306 307 308 309 310 311 312 313 314 315 316 317 318 319 320 321 322 323
0 7 37 41 55 324 325 326 327 328 329 330 331 332 333 334 335 336 337 338 339 340 341 342 343 344 345 346 347
0 6 10 19 20 27 29 37 41 43 44 55 63 327 348 349 350 351 352 353 354 355 356 357 358 359 360 361 362 363 364 365 366 367 368 369
0 370 371 372 373 374 375 376 377 378 379 380 381 382 383 384 385 386 387 388 389 390 391 392 393 394
0 17 110 395 396 397 398 399 400 401 402 403 404 405 406 407 408 409 410 411 412 413 414 415 416 417 418 419 420 421 422 423 424 425 426 427 428 429 430 431 432 433 434 435 436 437 438 439 440 441 442 443 444 445 446 447 448 449 450 451 452 453 454 455 456 457 458 459 460 461 462 463 464 465 466 467 468 469 470 471 472 473 474 475 476 477 478 479 480
0 7 25 37 41 360 481 482 483 484
0 62 485 486 487 488 489 490 491 492 493 494 495
0 41 496 497 498 499 500 501 502 503 504 505 506 507 508 509 510 511 512 513 514 515 516 517 518 519 520 521 522 523 524 525 526 527 528 529 530 531 532 533 534 535 536 537 538 539 540 541 542 543 544 545 546 547 548 549 550 551 552 553 554 555 556 557 558 559 560 561 562 563 564 565 566 567 568 569 570 571 572 573 574 575 576 577 578 579 580 581 582 583
0 76 93 467 584 585 586 587 588 589 590 591 592 593 594 595 596 597 598 599 600
0 601 602 603 604 605 606 607 608 609 610 611 612 613 614 615 616 617 618 619 620 621 622 623 624 625 626 627 628 629 630 631 632 633 634 635 636 637 638
0 639 640 641 642 643 644 645 646 647 648 649 650 651 652 653 654 655 656 657 658 659 660 661 662 663 664 665 666 667 668 669 670 671 672 673 674 675 676 677 678 679 680 681 682 683 684 685 686 687 688 689 690 691 692 693 694 695 696 697 698 699 700 701 702 703 704 705 706 707 708 709 710 711 712 713 714 715 716 717 718 719 720 721 722 723 724 725 726 727 728 729 730 731 732 733 734 735 736 737 738 739 740 741 742 743 744 745 746 747 748 749 750 751 752 753 754 755 756 757 758 759 760 761 762 763 764 765 766 767 768 769 770 771 772 773 774 775
0 776 777 778 779 780 781 782 783 784 785 786 787 788 789 790 791 792 793 794 795 796 797 798 799
0 3 9 33 59 800 801 802 803 804 805 806 807 808 809 810 811 812 813 814 815 816 817 818 819
0 820 821 822 823 824 825 826 827 828 829 830 831 832 833 834 835 836 837 838 839 840 841 842 843 844 845 846 847 848 849 850 851 852 853 854 855 856 857 858 859
0 7 58 860 861 862 863 864 865 866 867 868 869 870 871 872 873 874 875 876 877 878 879 880 881 882 883 884 885 886 887 888 889 890 891 892 893 894 895 896 897 898 899 900 901 902 903 904 905 906 907 908 909 910 911 912 913 914 915 916 917 918 919 920 921 922 923 924 925 926 927 928 929 930 931 932 933 934 935 936 937 938 939 940 941 942 943
0 7 944 945 946 947 948 949 950 951 952 953 954 955 956 957 958 959 960 961 962 963 964 965 966 967 968 969 970 971 972 973 974 975 976 977 978 979 980 981 982 983 984 985 986 987 988 989 990 991 992
0 243 322 993 994 995 996 997 998 999
0 54 58 62 93 599 867 884 901 910 911 923 929 934 937
0
0 1 62 72 110 114 122 126 152 153 154
0 10
0 51 54 96 884
0 7 29
0 147
0 7 27 37 41 43 44
0
0 313
0 994 997 998
0 17 57
0 3 37 44 173
0 1 58 62 67 72 80 86
0 37 41 782
0 6 7 10 29 34 36 41 44
0 70 93 599
0 147
0 110 611
0 6 7 10 12 29 36 37 44 326 352 547 558 568 583
0 883 930
0 7 29 44
0 7 29 34 37 41 43
0
0 58 884 934 936
0 80 486
0 1 409
0 879
0 54 93 884
0 1 26 54 64 74 82 85 97 506
0
0 322 998
0 2 22 26 50 51 85 91 96 136 884 906 937
0 6 7 326 340 347
0
0 3 33 173 189 196
0 19 22 35 46 62 90 91 98 143 599 884 900 903 906 912 921 934 936
0 17
0 685
0 394 530 734
0 11 22 24 35 58 70 91 93 143 493 884 903 906 911 912 914 921 923 929 934 936 937
0 7
1 2 51 70 74 75 82 85 97 506
1 83 884
1 70 73 79 81 96
1 35 72 78 80 86 89 92 94
1
1
1 38 62 64 66 71 73 74 75 81 82 97
1 70 74 75 85
1 24 35 67 78 86 89 92 593
1 66 70 76 83 590
1 51 64 70 71 75
1 64 70 71 74 82 85 143
1 13 73 87 589
1 93 590
1 67 72 80 84 86
1 66 81
1 35 47 67 78 84 86 88 89 92
1 66 70 79
1 51 64 70 75 93 143 495 506
1 65 73 93 884
1 78 80 86 88 92
1 51 54 64 71 75 506
1 35 67 72 78 80 84 88 92 94
1 76
1 80 84 86
1 67 72 80
1 58 91 93 996
1 54 58 62 90 93 98 126 143 934 935 936
1 67 72 80 84 86
1 2 13 22 38 50 62 77 82 83 90 91 96 599
1 67 86
1
1 26 54 66 93 143
1 51 64 70 128 144
2 58 91 136 143 903 912 917
2 106 107 117 131 155
2 127 145 146 486 599
2
2
2 407
2
2 108 165
2 99 107 131 155
2 99 106 117 131 155
2 105
2
2 9 24 40 409 447 906
2 113 906
2 151 152 154
2 111 128
2 24 135 144
2
2 146
2 99 107 131 155 541
2
2 132
2 525
2
2 24 128 154
2 141
2
2 493
2 24 91 146 147
2 100 495
2 97 113 122
2
2
2 99 106 107 117 155 560
2 119 935
2 295
2 905 935
2 114
2 54 98 143
2
2 860
2 151
2
2 123 153 243 885
2
2 58 62 75 82 91 96 98 136 914 936
2 97 114
2 100
2 100 116 126
2 28 39 126
2
2
2
2 112 139 152 440
2 24 112 151 154 181
2 24 141
2 24 112 122 152
2 99 106 107 117 131
2 806
3 159 172 174 176 198 204 205
3 171
3 157 161 167 172 174 176 178 180 182 185 188 192 204
3 197 208
3 159 172 174 176 204
3 168 175 183
3 172 205
3 202
3 105 172 204 205
3 168
3 159 172 174 176 204
3 162 166 175 177 183 200 205 988
3 205
3 179
3 158
3 157 159 161 163 165 167 174 176 178 180 182 185 188 192 204 205
3 34 57 184 191
3 157 159 161 167 172 176 178 180 182 185 192 201 204
3 162 168 202 205
3 157 159 161 167 172 174 178 180 182 185 192 201 204 205
3 168 183 200 205
3 159 172 174 176
3 170
3 159 172 174 176
3 152 183 205
3 159 172 174 176 204 205
3 162 168 177 181 200 205 467
3 173 189
3 159 172 174 176 204
3 502 859
3 199 206
3 159 172 204
3 57 184
3
3 173
3 159 172 174 176 204
3
3 197 208
3
3 57
3 160 194 208
3 157
3 187 205 208
3 168 177 183 205 206
3 174 176
3 164 175
3
3 157 159 161 165 167 172 174 176 182 185 188 192
3 157 163 165 168 169 172 175 176 177 181 182 183 199 200
3 187 200 360
3 380
3 160 194 197 199
4 210 217 230 240
4 209 217 230 237 240
4
4
4 233
4
4
4 218 219 228 233 239
4 209 210 240
4 216 219 239
4 216 218 238 239
4 414
4
4
4
4
4
4
4
4 216
4
4 209 210 240
4 803
4
4 213 216 239
4
4
4
4 210
4 219
4 216 218 219 233
4 209 210 217 230
4
5
5 21 141
5
5 292
5
5 256 258
5
5
5
5
5
5
5
5 256
5 247 255 258 323
5
5 247 256
5
5
5
5
5
5
5
5
5
5
5
5
5
5
5 844
5
5
5 486
5
5
5
5
5
5
5
5
5
5
5
5 426
5 318
5
5
5 245
5 997
5
5 133
5
5
5
5
5
5
5
5
5
5
5
5
5
5
5
5
5 872
5 31 585
5
5
5
5
5 289
5
5
5
5 21 53 998
5 256
6
6
6 41 55
6 7
6 345 385
6
6 340 347
6 347
6
6
6
6 344
6
6 341
6
6
6 55 330
6 337
6
6 347
6 335
6 328
6
6 55 330 331 343 366
7
7
7
7 562 989
7 41
7
7
7
7
7 364
7 362 364
7 628
7 10 206 362
7 568
7 358 360 364
7
7 357 358 362
7
7 347
7
7
7
8
8
8 632
8
8 380 597
8
8
8
8
8
8 207 374 484
8
8
8
8
8 328
8
8
8
8
8
8
8
8
8 61
9 398 450 454 463 476
9 426
9 426 446 448 449 460 464 479
9 395 404 452
9 461 475 803
9 412 414 425 456 470
9
9 426 475
9
9 398
9 439
9
9 103 465 467
9 426 460 462
9 48 110
9 413 452 465 467 475
9
9 400 425 470
9 410 464 475
9 220 400
9 435 529
9 460 949
9
9 451 461
9
9
9 426 446
9 443
9 449
9 450 461 473
9 400 412 456 470
9 288 396 397 402 408 421 446 450 460 462 463
9 436
9 471
9
9 443
9 452
9 474
9
9
9 415
9 427
9 455
9
9 405
9 151
9
9
9 422 430
9
9
9 397 421 426 460 469
9 110 465 467
9 397
9 397 423 469
9 395 424 426 451 461 463
9 418 450 466 473 477
9 398 410 431
9
9 395
9 437
9 400 425 470
9 462
9 469
9
9 397 408 416 426 446 463
9 399 418 424 450 473
9 408 426 457
9 395 426 450 460 477
9 397 413
9 407 410 447 467
9 451 595
9 13 183 407 410 447 465 475
9
9 446 449 458
9 400 412 425 456
9 428
9
9 424 451 461
9 432
9 399 402 410 413 467
9 395
9 451 463
9 839
9 397
9
10 482
10 481
10
10 380
11 486 487 488 489
11 47 100 276 485 487 489 490 888
11 485 486 488 489 490 494
11 485 487 489 490 494
11 485 486 487 488 490
11 486 487 488 489 494
11
11
11 62 125
11 487 488 490
11 82 127 888
12
12
12 896
12 549 566 583
12
12
12 186 513 566
12 507 566
12
12
12 51 64 82 85
12 503 566
12
12
12 566
12
12 514 546 558 566
12 502 542
12 512 546 558
12
12
12
12 533 548 977
12
12
12
12
12 566
12
12 120
12
12
12
12 415
12 61
12
12 558
12 518
12 972
12
12
12
12
12
12
12 117 571 583 797
12 513
12
12
12
12 512 514 583 642
12 41 566 568 583
12 518
12 499
12
12
12
12
12
12
12
12
12 41 512 514 532 566 583
12
12 131 583
12
12 351
12 565 582
12
12 563 582
12 499 502 503 507 510 512 523 547 558
12
12 41 361 547 583
12
12
12 541
12
12
12
12 583
12
12
12 579 583
12 578 583
12 623
12
12 563 565
12 41 499 541 546 547 558 560 568 575 578 579 797
13 586 587 588 591 592 597
13 313 833 904
13 584 588 591 592 594 597 600
13 584 588 591 592
13 584 586 587 591 597 600
13 76
13 73 77
13 584 586 587 588 597
13 584 586 587 597
13 72
13 586 597
13 466
13
13 374 584 586 588 591 592 594
13
13 22 38 58 93 100
13 586 588
14
14
14
14
14
14
14 617
14
14
14
14 40
14
14
14
14
14
14 607
14
14
14
14
14
14 580
14
14
14
14
14 359
14 969
14
14
14 372
14
14
14
14
14
14
15 711
15
15
15 546
15
15 662 677 678 732 740 771 774
15 743
15
15
15 653 664 673 687 742
15 767
15 692 773
15
15 690 746 752
15 648 664 687 742
15 662 668 679 681 699 720 732 737 744 767 775
15
15
15 703 733
15 716
15 694 761
15 665 675 698 699 711 721 741 756 768
15
15 644 654 668 677 678 682 683 692 699 712 722 744 767
15 746
15 648 653 687 742
15 660 698 705 710 711 721 741 756
15
15
15 654 662 678 679 681 692 720 737 744 746 759 762 771
15 702
15 672 676 677 691
15
15 670 676 691
15 648 687 742 763
15 692 698 699 720 740
15 660 698 701 744 746 756
15 670 672 691 729
15 644 662 670 691 692 699 713 740 773
15 644 662 668 683 692 698 699 711 746
15 654 668 744 762
15 683 690 704 739
15 654 668 682 695 700 737 762
15 662 681 683 687 699 712 732 742 746 767 769 771
15 662 678 680 682 684 688 699 700 712 732 771
15 683
15 60 699
15
15 648 653 664 673 682 726 742 767
15 683
15 734
15 652 680 704 739 746 752
15 670 672 676 677
15 650 662 668 674 677 678 695 699 712 740 749 771
15 698 711 721
15 659
15 681 692
15
15 706
15 660 665 674 675 678 693 701 703 707 711 715 721 741 756
15 654 660 662 674 677 678 682 683 685 692 722 732 738 740 744 746 748 756 770 771 774
15 681 683 757
15 675 698 711 721
15 669 760
15 657 698
15 680 690 728 739
15 665 710
15 697
15 698
15
15 760 774
15 665 705
15 639 660 665 678 693 698 701 715 721 741 756 768
15 662 682 683 692 732 767
15 677 739
15 739
15 698 711
15 658 753
15
15 755 761
15
15 654 668 674 744 762
15 660 665 693 698 701 711 756
15 662 699 762
15
15 727
15 727
15 687
15 724 725
15 704 739
15 676
15 744 756 760 769
15 760
15 644 654 682 683 699 712 744 771
15 657
15 61 689 738
15
15
15 654 668 681 744 759 762
15 699 734
15 680 690 704 713 714 728
15 644 674 677 692 699
15 660 665 698 711 756
15 648 653 664 673 682 687
15 645
15 654 662 668 675 679 699 720 730 732 737 762 771
15
15 652 663 668 675 678 682 690 699 762 771
15
15 699
15 692
15
15
15 652 690
15 716
15
15 718
15 660 665 675 698 699 711 721 730 741
15 700
15
15 668 737 762
15 702 709 730 731 762
15 659 718
15 668 679 681 720 722 737 744 746 759 760 767 769
15 673
15
15
15
15 649 654 662 682 687 712 762 771
15 660 711
15 682 730 762 771
15 699
15 644 668 682 683 692 699 732 744 746 767 769
15
15 650 677
15 644 699 709
15 654
16
16
16
16
16 790
16
16 36
16 788 792
16 792
16
16
16
16 783 792
16
16 780
16
16 783 784 788
16
16
16
16
16 541 583
16
16
17 804
17
17 804 805 817
17 231 399 804 805 809 810 811 816 817
17 800 802 803 810 816 817
17 802 803 816 817
17 156 808 812
17 811
17 806 812
17 803 810 816 817
17 803 804 809 816 817
17 803 807
17 806 808
17
17 818
17
17 803 804 805 809 810 817
17 802 803 804 805 809 810 816
17 814
17
18
18
18
18
18
18 826
18 825
18
18 833
18
18
18
18
18 585 828
18
18
18
18
18
18 478
18
18
18
18
18 273
18
18
18
18
18
18
18
18
18
18
18
18
18
18 980
18 186
19 138
19
19
19 873
19 905
19
19
19 22
19
19 927
19 908 914
19
19 312
19 863
19
19
19
19
19
19 49
19
19
19
19 42
19 22 26 46 50 54 58 62 65 83 912 934 936
19 141
19
19
19 486 495
19 901
19
19
19
19
19
19
19 498 921
19
19
19
19 58 905
19 22 889 938
19
19 58 62 98 935 936
19 585
19 134 864 900
19 54 58 62 110 111 921 935
19
19 870
19
19 22
19 22 62
19 58 62 98 884 934 935 936
19
19 62 143 870
19
19
19 98
19
19
19
19 58 62 896 906
19
19 22 62
19
19
19
19 869
19
19 22 62
19 42
19
19 935
19
19 22 46 58 62 91 884 912
19 91 132 134 903 906 912 932 936
19 46 58 62 91 143 884 903 912 935 937
19 22 54 62 936
19 901
19
19
19
19
19
20
20
20 992
20
20
20 416
20 990
20 984
20
20
20
20
20
20
20
20
20
20 965
20 967
20
20
20 961
20
20 962
20
20 629 985
20
20
20 534
20
20
20
20
20 518
20
20
20 858
20
20
20
20 951
20 969
20
20
20 168
20 351
20 950
20
20 946
21
21 32
21
21 90
21 32 293
21 32 53 322
21
